p cnf 15 34
-1 -2 15 0 
-2 15 0 
-3 15 0 
-4 -5 15 0 
-6 -2 15 0 
-7 -8 15 0 
-4 -7 15 0 
-8 -2 15 0 
-7 15 0 
-9 15 0 
-10 -11 15 0 
-12 -9 15 0 
-7 -6 15 0 
-1 -6 15 0 
-12 -2 15 0 
-11 15 0 
-9 -5 15 0 
-11 -6 15 0 
-5 -2 15 0 
-7 -5 15 0 
-13 15 0 
-9 -10 15 0 
-4 15 0 
-8 -7 15 0 
-6 15 0 
-14 -4 15 0 
-13 -11 15 0 
-4 -9 15 0 
-10 -2 15 0 
-14 -5 15 0 
-4 -11 15 0 
-3 -10 15 0 
-7 -11 15 0 
-14 -11 15 0 
